solution status: optimal solution found
objective value:                     221712.503540817
d11(0,0)                                            1 	(obj:0)
d11(1,1)                                            1 	(obj:0)
d11(2,3)                                            1 	(obj:0)
d11(2,5)                                            1 	(obj:0)
d11(3,7)                                            1 	(obj:0)
d11(3,9)                                            1 	(obj:0)
d11(3,10)                                           1 	(obj:0)
d11(3,11)                                           1 	(obj:0)
d11(3,13)                                           1 	(obj:0)
d11(3,14)                                           1 	(obj:0)
d11(4,15)                                           1 	(obj:0)
d11(4,16)                                           1 	(obj:0)
d11(4,17)                                           1 	(obj:0)
d11(4,19)                                           1 	(obj:0)
d11(4,20)                                           1 	(obj:0)
d11(4,21)                                           1 	(obj:0)
d11(4,22)                                           1 	(obj:0)
d11(4,23)                                           1 	(obj:0)
d11(4,25)                                           1 	(obj:0)
d11(4,27)                                           1 	(obj:0)
d11(4,29)                                           1 	(obj:0)
d11(5,31)                                           1 	(obj:0)
d11(5,33)                                           1 	(obj:0)
d11(5,34)                                           1 	(obj:0)
d11(5,35)                                           1 	(obj:0)
d11(5,37)                                           1 	(obj:0)
d11(5,39)                                           1 	(obj:0)
d11(5,40)                                           1 	(obj:0)
d11(5,41)                                           1 	(obj:0)
d11(5,42)                                           1 	(obj:0)
d11(5,43)                                           1 	(obj:0)
d11(5,45)                                           1 	(obj:0)
d11(5,46)                                           1 	(obj:0)
d11(5,47)                                           1 	(obj:0)
d11(5,49)                                           1 	(obj:0)
d11(5,50)                                           1 	(obj:0)
d11(5,51)                                           1 	(obj:0)
d11(5,53)                                           1 	(obj:0)
d11(5,54)                                           1 	(obj:0)
d11(5,55)                                           1 	(obj:0)
d11(5,57)                                           1 	(obj:0)
d11(5,59)                                           1 	(obj:0)
d11(5,61)                                           1 	(obj:0)
d12(2,4)                                            1 	(obj:0)
d12(2,6)                                            1 	(obj:0)
d12(6,64)                                           1 	(obj:0)
d12(6,66)                                           1 	(obj:0)
d12(6,68)                                           1 	(obj:0)
d12(6,70)                                           1 	(obj:0)
d12(6,72)                                           1 	(obj:0)
d12(6,74)                                           1 	(obj:0)
d12(6,76)                                           1 	(obj:0)
d12(6,78)                                           1 	(obj:0)
d12(6,80)                                           1 	(obj:0)
d12(6,82)                                           1 	(obj:0)
d12(6,84)                                           1 	(obj:0)
d12(6,86)                                           1 	(obj:0)
d12(6,88)                                           1 	(obj:0)
d12(6,90)                                           1 	(obj:0)
d12(6,92)                                           1 	(obj:0)
d12(6,94)                                           1 	(obj:0)
d12(6,96)                                           1 	(obj:0)
d12(6,98)                                           1 	(obj:0)
d12(6,100)                                          1 	(obj:0)
d12(6,102)                                          1 	(obj:0)
d12(6,104)                                          1 	(obj:0)
d12(6,106)                                          1 	(obj:0)
d12(6,108)                                          1 	(obj:0)
d12(6,110)                                          1 	(obj:0)
d12(6,112)                                          1 	(obj:0)
d12(6,114)                                          1 	(obj:0)
d12(6,116)                                          1 	(obj:0)
d12(6,118)                                          1 	(obj:0)
d12(6,120)                                          1 	(obj:0)
d12(6,122)                                          1 	(obj:0)
d12(6,124)                                          1 	(obj:0)
d12(6,126)                                          1 	(obj:0)
d21(4,15)                                           1 	(obj:0)
d21(5,31)                                           1 	(obj:0)
d21(5,32)                                           1 	(obj:0)
d21(5,33)                                           1 	(obj:0)
d21(5,34)                                           1 	(obj:0)
d21(5,35)                                           1 	(obj:0)
d21(5,36)                                           1 	(obj:0)
d21(5,37)                                           1 	(obj:0)
d21(5,39)                                           1 	(obj:0)
d21(5,40)                                           1 	(obj:0)
d21(5,41)                                           1 	(obj:0)
d21(5,43)                                           1 	(obj:0)
d21(5,47)                                           1 	(obj:0)
d21(5,48)                                           1 	(obj:0)
d21(5,49)                                           1 	(obj:0)
d21(5,51)                                           1 	(obj:0)
d21(5,55)                                           1 	(obj:0)
d21(6,63)                                           1 	(obj:0)
d21(6,64)                                           1 	(obj:0)
d21(6,65)                                           1 	(obj:0)
d21(6,66)                                           1 	(obj:0)
d21(6,67)                                           1 	(obj:0)
d21(6,68)                                           1 	(obj:0)
d21(6,69)                                           1 	(obj:0)
d21(6,70)                                           1 	(obj:0)
d21(6,71)                                           1 	(obj:0)
d21(6,72)                                           1 	(obj:0)
d21(6,73)                                           1 	(obj:0)
d21(6,74)                                           1 	(obj:0)
d21(6,75)                                           1 	(obj:0)
d21(6,76)                                           1 	(obj:0)
d21(6,79)                                           1 	(obj:0)
d21(6,80)                                           1 	(obj:0)
d21(6,81)                                           1 	(obj:0)
d21(6,82)                                           1 	(obj:0)
d21(6,83)                                           1 	(obj:0)
d21(6,84)                                           1 	(obj:0)
d21(6,85)                                           1 	(obj:0)
d21(6,87)                                           1 	(obj:0)
d21(6,88)                                           1 	(obj:0)
d21(6,89)                                           1 	(obj:0)
d21(6,91)                                           1 	(obj:0)
d21(6,95)                                           1 	(obj:0)
d21(6,96)                                           1 	(obj:0)
d21(6,97)                                           1 	(obj:0)
d21(6,98)                                           1 	(obj:0)
d21(6,99)                                           1 	(obj:0)
d21(6,100)                                          1 	(obj:0)
d21(6,103)                                          1 	(obj:0)
d21(6,104)                                          1 	(obj:0)
d21(6,107)                                          1 	(obj:0)
d21(6,111)                                          1 	(obj:0)
d21(6,112)                                          1 	(obj:0)
d21(6,113)                                          1 	(obj:0)
d21(6,115)                                          1 	(obj:0)
d21(6,119)                                          1 	(obj:0)
y2(6,100)                            1385.48851144895 	(obj:0)
y2(6,102)                            1385.48851144895 	(obj:0)
y2(6,104)                            1385.48851144895 	(obj:0)
y2(6,106)                            1385.48851144895 	(obj:0)
y2(6,108)                            1385.48851144895 	(obj:0)
y2(6,110)                            1385.48851144895 	(obj:0)
y2(6,112)                            1385.48851144895 	(obj:0)
y2(6,114)                            1385.48851144895 	(obj:0)
y2(6,116)                            1385.48851144895 	(obj:0)
y2(6,118)                            1385.48851144895 	(obj:0)
y2(6,120)                            1385.48851144895 	(obj:0)
y2(6,122)                            1385.48851144895 	(obj:0)
y2(6,124)                            1385.48851144895 	(obj:0)
y2(6,126)                            1385.48851144895 	(obj:0)
STE(1,1)                             11382.7501011111 	(obj:0)
STE(0,0)                                        14175 	(obj:0)
STE(1,2)                                        13041 	(obj:0)
STE(2,3)                                   10205.9998 	(obj:0)
STE(2,4)                             11526.9207812743 	(obj:0)
STE(2,5)                             11864.2496988888 	(obj:0)
STE(2,6)                             13185.1706801632 	(obj:0)
STE(3,7)                             7413.74990111115 	(obj:0)
STE(3,8)                                    9071.9998 	(obj:0)
STE(3,9)                             8734.67088238547 	(obj:0)
STE(3,10)                            10392.9207812743 	(obj:0)
STE(3,11)                                   9071.9998 	(obj:0)
STE(3,12)                            10730.2496988888 	(obj:0)
STE(3,13)                            10392.9207812743 	(obj:0)
STE(3,14)                            12051.1706801631 	(obj:0)
STE(4,15)                            4621.50000222231 	(obj:0)
STE(4,16)                            6279.74990111113 	(obj:0)
STE(4,17)                            6279.74990111115 	(obj:0)
STE(4,18)                                   7937.9998 	(obj:0)
STE(4,19)                            5942.42098349663 	(obj:0)
STE(4,20)                            7600.67088238545 	(obj:0)
STE(4,21)                            7600.67088238545 	(obj:0)
STE(4,22)                            9258.92078127426 	(obj:0)
STE(4,23)                            6279.74990111116 	(obj:0)
STE(4,24)                                   7937.9998 	(obj:0)
STE(4,25)                                   7937.9998 	(obj:0)
STE(4,26)                            9596.24969888885 	(obj:0)
STE(4,27)                            7600.67088238547 	(obj:0)
STE(4,28)                            9258.92078127433 	(obj:0)
STE(4,29)                            9258.92078127429 	(obj:0)
STE(4,30)                            10917.1706801631 	(obj:0)
STE(5,31)                            1829.25010333346 	(obj:0)
STE(5,32)                            3487.50000222231 	(obj:0)
STE(5,33)                            3487.50000222228 	(obj:0)
STE(5,34)                            5145.74990111113 	(obj:0)
STE(5,35)                            3487.50000222231 	(obj:0)
STE(5,36)                            5145.74990111115 	(obj:0)
STE(5,37)                            5145.74990111116 	(obj:0)
STE(5,38)                                   6803.9998 	(obj:0)
STE(5,39)                            3150.17108460778 	(obj:0)
STE(5,40)                            4808.42098349663 	(obj:0)
STE(5,41)                             4808.4209834966 	(obj:0)
STE(5,42)                            6466.67088238545 	(obj:0)
STE(5,43)                             4808.4209834966 	(obj:0)
STE(5,44)                            6466.67088238545 	(obj:0)
STE(5,45)                            6466.67088238542 	(obj:0)
STE(5,46)                            8124.92078127426 	(obj:0)
STE(5,47)                            3487.50000222231 	(obj:0)
STE(5,48)                            5145.74990111116 	(obj:0)
STE(5,49)                            5145.74990111116 	(obj:0)
STE(5,50)                                   6803.9998 	(obj:0)
STE(5,51)                            5145.74990111116 	(obj:0)
STE(5,52)                                   6803.9998 	(obj:0)
STE(5,53)                                   6803.9998 	(obj:0)
STE(5,54)                            8462.24969888885 	(obj:0)
STE(5,55)                            4808.42098349663 	(obj:0)
STE(5,56)                            6466.67088238547 	(obj:0)
STE(5,57)                            6466.67088238548 	(obj:0)
STE(5,58)                            8124.92078127433 	(obj:0)
STE(5,59)                            6466.67088238545 	(obj:0)
STE(5,60)                            8124.92078127429 	(obj:0)
STE(5,61)                            8124.92078127429 	(obj:0)
STE(5,62)                            9783.17068016314 	(obj:0)
STE(6,63)                            695.250103333464 	(obj:0)
STE(6,64)                            2011.46418920997 	(obj:0)
STE(6,65)                            2353.50000222231 	(obj:0)
STE(6,66)                            3669.71408809882 	(obj:0)
STE(6,67)                            2353.50000222228 	(obj:0)
STE(6,68)                            3669.71408809879 	(obj:0)
STE(6,69)                            4011.74990111113 	(obj:0)
STE(6,70)                            5327.96398698763 	(obj:0)
STE(6,71)                            2353.50000222231 	(obj:0)
STE(6,72)                            3669.71408809882 	(obj:0)
STE(6,73)                            4011.74990111115 	(obj:0)
STE(6,74)                            5327.96398698766 	(obj:0)
STE(6,75)                            4011.74990111116 	(obj:0)
STE(6,76)                            5327.96398698766 	(obj:0)
STE(6,77)                                   5669.9998 	(obj:0)
STE(6,78)                            6986.21388587651 	(obj:0)
STE(6,79)                            2016.17108460778 	(obj:0)
STE(6,80)                            3332.38517048429 	(obj:0)
STE(6,81)                            3674.42098349663 	(obj:0)
STE(6,82)                            4990.63506937313 	(obj:0)
STE(6,83)                             3674.4209834966 	(obj:0)
STE(6,84)                            4990.63506937311 	(obj:0)
STE(6,85)                            5332.67088238545 	(obj:0)
STE(6,86)                            6648.88496826195 	(obj:0)
STE(6,87)                             3674.4209834966 	(obj:0)
STE(6,88)                            4990.63506937311 	(obj:0)
STE(6,89)                            5332.67088238545 	(obj:0)
STE(6,90)                            6648.88496826195 	(obj:0)
STE(6,91)                            5332.67088238542 	(obj:0)
STE(6,92)                            6648.88496826192 	(obj:0)
STE(6,93)                            6990.92078127426 	(obj:0)
STE(6,94)                            8307.13486715077 	(obj:0)
STE(6,95)                            2353.50000222231 	(obj:0)
STE(6,96)                            3669.71408809882 	(obj:0)
STE(6,97)                            4011.74990111116 	(obj:0)
STE(6,98)                            5327.96398698766 	(obj:0)
STE(6,99)                            4011.74990111116 	(obj:0)
STE(6,100)                           5327.96398698766 	(obj:0)
STE(6,101)                                  5669.9998 	(obj:0)
STE(6,102)                           6986.21388587651 	(obj:0)
STE(6,103)                           4011.74990111116 	(obj:0)
STE(6,104)                           5327.96398698766 	(obj:0)
STE(6,105)                                  5669.9998 	(obj:0)
STE(6,106)                           6986.21388587651 	(obj:0)
STE(6,107)                                  5669.9998 	(obj:0)
STE(6,108)                           6986.21388587651 	(obj:0)
STE(6,109)                           7328.24969888885 	(obj:0)
STE(6,110)                           8644.46378476535 	(obj:0)
STE(6,111)                           3674.42098349663 	(obj:0)
STE(6,112)                           4990.63506937313 	(obj:0)
STE(6,113)                           5332.67088238547 	(obj:0)
STE(6,114)                           6648.88496826198 	(obj:0)
STE(6,115)                           5332.67088238548 	(obj:0)
STE(6,116)                           6648.88496826199 	(obj:0)
STE(6,117)                           6990.92078127433 	(obj:0)
STE(6,118)                           8307.13486715083 	(obj:0)
STE(6,119)                           5332.67088238545 	(obj:0)
STE(6,120)                           6648.88496826195 	(obj:0)
STE(6,121)                           6990.92078127429 	(obj:0)
STE(6,122)                            8307.1348671508 	(obj:0)
STE(6,123)                           6990.92078127429 	(obj:0)
STE(6,124)                            8307.1348671508 	(obj:0)
STE(6,125)                           8649.17068016314 	(obj:0)
STE(6,126)                           9965.38476603964 	(obj:0)
BG(5)                                4196.29249897959 	(obj:10)
BG(6)                                2673.40993877551 	(obj:10)
AVE(1)                               3259.55177567504 	(obj:0)
WB(2)                                546.885468653859 	(obj:0)
AVE(2)                               3259.55588804169 	(obj:0)
AVE(3)                               3579.36165209166 	(obj:0)
AVE(4)                               3579.36576445831 	(obj:0)
WB(5)                                3472.77007794174 	(obj:0)
AVE(5)                               3472.77007794174 	(obj:0)
WB(6)                                 3046.3618950668 	(obj:0)
AVE(6)                                3046.3618950668 	(obj:0)
WG(1)                                3259.55177567504 	(obj:10)
WG(2)                                2712.67041938783 	(obj:10)
WG(3)                                3579.36165209166 	(obj:10)
WG(4)                                3579.36576445831 	(obj:10)
BG(1)                                936.740723304561 	(obj:10)
BG(3)                                616.930846887931 	(obj:10)
BG(4)                                616.926734521281 	(obj:10)
y1(1,1)                              1492.42490899997 	(obj:0)
y1(2,3)                              38.4752710000341 	(obj:0)
y1(2,5)                               38.475271000045 	(obj:0)
y1(3,7)                              1492.42490899996 	(obj:0)
y1(3,9)                              1492.42490899996 	(obj:0)
y1(3,11)                             1492.42490899996 	(obj:0)
y1(3,13)                             1492.42490899996 	(obj:0)
y1(4,15)                             1492.42490899996 	(obj:0)
y1(4,17)                             1492.42490899996 	(obj:0)
y1(4,19)                             1492.42490899996 	(obj:0)
y1(4,21)                             1492.42490899996 	(obj:0)
y1(4,23)                             1492.42490899996 	(obj:0)
y1(4,25)                             1492.42490899996 	(obj:0)
y1(4,27)                             1492.42490899996 	(obj:0)
y1(4,29)                             1492.42490899996 	(obj:0)
y1(5,31)                             1492.42490899996 	(obj:0)
y1(5,33)                             1492.42490899996 	(obj:0)
y1(5,35)                             1492.42490899996 	(obj:0)
y1(5,37)                             1492.42490899996 	(obj:0)
y1(5,39)                             1492.42490899996 	(obj:0)
y1(5,41)                             1492.42490899996 	(obj:0)
y1(5,43)                             1492.42490899996 	(obj:0)
y1(5,45)                             1492.42490899996 	(obj:0)
y1(5,47)                             1492.42490899996 	(obj:0)
y1(5,49)                             1492.42490899996 	(obj:0)
y1(5,51)                             1492.42490899996 	(obj:0)
y1(5,53)                             1492.42490899996 	(obj:0)
y1(5,55)                             1492.42490899996 	(obj:0)
y1(5,57)                             1492.42490899996 	(obj:0)
y1(5,59)                             1492.42490899996 	(obj:0)
y1(5,61)                             1492.42490899996 	(obj:0)
y2(2,4)                              1345.44282122438 	(obj:0)
y2(2,6)                              1345.44282122438 	(obj:0)
y2(6,64)                             1385.48851144895 	(obj:0)
y2(6,66)                             1385.48851144895 	(obj:0)
y2(6,68)                             1385.48851144895 	(obj:0)
y2(6,70)                             1385.48851144895 	(obj:0)
y2(6,72)                             1385.48851144895 	(obj:0)
y2(6,74)                             1385.48851144895 	(obj:0)
y2(6,76)                             1385.48851144895 	(obj:0)
y2(6,78)                             1385.48851144895 	(obj:0)
y2(6,80)                             1385.48851144895 	(obj:0)
y2(6,82)                             1385.48851144895 	(obj:0)
y2(6,84)                             1385.48851144895 	(obj:0)
y2(6,86)                             1385.48851144895 	(obj:0)
y2(6,88)                             1385.48851144895 	(obj:0)
y2(6,90)                             1385.48851144895 	(obj:0)
y2(6,92)                             1385.48851144895 	(obj:0)
y2(6,94)                             1385.48851144895 	(obj:0)
y2(6,96)                             1385.48851144895 	(obj:0)
y2(6,98)                             1385.48851144895 	(obj:0)
